100
1000
200
199
199
199
198
198
197
197
196
196
196
196
196
196
195
194
193
193
193
193
192
191
191
190
189
189
189
189
189
189
188
188
188
187
186
186
185
185
185
184
183
182
178
177
177
176
175
175
175
174
174
174
174
173
173
173
172
172
172
170
170
170
169
169
169
167
167
167
166
166
165
165
165
164
164
164
164
163
163
162
162
162
162
161
161
161
159
159
157
156
155
154
154
153
152
152
152
151
151
151
